p edge 135 960
e 1 2
e 1 3
e 1 4
e 1 5
e 1 6
e 1 7
e 1 8
e 1 9
e 1 10
e 1 11
e 1 12
e 1 13
e 1 14
e 1 15
e 1 16
e 2 3
e 2 4
e 2 5
e 2 6
e 2 7
e 2 8
e 2 9
e 2 10
e 2 11
e 2 12
e 2 13
e 2 14
e 2 15
e 2 17
e 3 4
e 3 5
e 3 6
e 3 7
e 3 8
e 3 9
e 3 10
e 3 11
e 3 12
e 3 13
e 3 14
e 3 15
e 3 18
e 4 5
e 4 6
e 4 7
e 4 8
e 4 9
e 4 10
e 4 11
e 4 12
e 4 13
e 4 14
e 4 15
e 5 6
e 5 7
e 5 8
e 5 9
e 5 10
e 5 11
e 5 12
e 5 13
e 5 14
e 5 15
e 5 19
e 6 7
e 6 8
e 6 9
e 6 10
e 6 11
e 6 12
e 6 13
e 6 14
e 6 15
e 7 8
e 7 9
e 7 10
e 7 11
e 7 12
e 7 13
e 7 14
e 7 15
e 8 9
e 8 10
e 8 11
e 8 12
e 8 13
e 8 14
e 8 15
e 8 20
e 9 10
e 9 11
e 9 12
e 9 13
e 9 14
e 9 15
e 10 11
e 10 13
e 10 14
e 10 15
e 10 21
e 11 12
e 11 13
e 11 14
e 11 15
e 12 13
e 12 14
e 12 15
e 12 21
e 13 14
e 13 15
e 13 22
e 13 23
e 13 24
e 13 25
e 14 15
e 14 26
e 14 27
e 14 43
e 15 58
e 16 73
e 16 27
e 16 75
e 16 76
e 16 77
e 16 20
e 16 78
e 16 79
e 16 80
e 16 81
e 16 82
e 16 83
e 16 84
e 17 22
e 17 28
e 17 29
e 17 30
e 17 31
e 17 32
e 17 33
e 17 34
e 17 21
e 17 35
e 17 36
e 17 37
e 17 38
e 17 39
e 17 119
e 18 43
e 18 44
e 18 45
e 18 46
e 18 47
e 18 48
e 18 49
e 18 50
e 18 51
e 18 52
e 18 26
e 18 53
e 18 23
e 18 54
e 19 24
e 19 58
e 19 59
e 19 60
e 19 61
e 19 25
e 19 62
e 19 63
e 19 64
e 19 65
e 19 66
e 19 67
e 19 68
e 19 69
e 20 73
e 20 27
e 20 74
e 20 75
e 20 76
e 20 77
e 20 78
e 20 79
e 20 80
e 20 81
e 20 82
e 20 83
e 20 84
e 20 85
e 21 22
e 21 28
e 21 29
e 21 30
e 21 31
e 21 32
e 21 33
e 21 34
e 21 35
e 21 36
e 21 37
e 21 38
e 21 39
e 22 28
e 22 29
e 22 30
e 22 31
e 22 32
e 22 33
e 22 34
e 22 35
e 22 36
e 22 37
e 22 38
e 22 39
e 23 43
e 23 44
e 23 45
e 23 46
e 23 47
e 23 48
e 23 49
e 23 50
e 23 51
e 23 52
e 23 26
e 23 53
e 23 54
e 24 58
e 24 59
e 24 60
e 24 61
e 24 25
e 24 62
e 24 63
e 24 64
e 24 65
e 24 66
e 24 67
e 24 68
e 24 69
e 25 58
e 25 59
e 25 60
e 25 61
e 25 62
e 25 63
e 25 64
e 25 65
e 25 66
e 25 67
e 25 68
e 25 69
e 26 43
e 26 44
e 26 45
e 26 46
e 26 47
e 26 48
e 26 49
e 26 50
e 26 51
e 26 52
e 26 53
e 26 54
e 27 73
e 27 74
e 27 75
e 27 76
e 27 77
e 27 78
e 27 79
e 27 80
e 27 81
e 27 82
e 27 83
e 27 84
e 28 29
e 28 30
e 28 31
e 28 32
e 28 33
e 28 34
e 28 35
e 28 36
e 28 37
e 28 38
e 28 39
e 29 30
e 29 31
e 29 32
e 29 33
e 29 34
e 29 35
e 29 36
e 29 37
e 29 38
e 29 39
e 30 31
e 30 32
e 30 33
e 30 34
e 30 35
e 30 36
e 30 37
e 31 32
e 31 33
e 31 34
e 31 35
e 31 36
e 31 37
e 31 38
e 31 39
e 32 33
e 32 34
e 32 35
e 32 36
e 32 37
e 32 38
e 32 39
e 33 34
e 33 35
e 33 36
e 33 37
e 33 38
e 33 39
e 34 35
e 34 36
e 34 37
e 34 38
e 34 39
e 34 40
e 35 36
e 35 37
e 35 38
e 35 39
e 36 37
e 36 38
e 36 39
e 36 103
e 37 38
e 37 39
e 37 41
e 38 39
e 39 42
e 40 88
e 40 89
e 40 90
e 40 91
e 40 41
e 40 92
e 40 93
e 40 94
e 40 95
e 40 96
e 40 97
e 40 42
e 40 98
e 40 99
e 41 88
e 41 89
e 41 90
e 41 91
e 41 92
e 41 93
e 41 94
e 41 95
e 41 96
e 41 97
e 41 42
e 41 98
e 41 99
e 42 88
e 42 89
e 42 90
e 42 91
e 42 92
e 42 93
e 42 94
e 42 95
e 42 96
e 42 97
e 42 98
e 42 99
e 43 44
e 43 45
e 43 46
e 43 47
e 43 48
e 43 49
e 43 50
e 43 51
e 43 52
e 43 53
e 43 54
e 43 55
e 43 70
e 44 45
e 44 46
e 44 47
e 44 48
e 44 49
e 44 50
e 44 51
e 44 52
e 44 53
e 44 54
e 44 56
e 45 46
e 45 47
e 45 48
e 45 49
e 45 50
e 45 51
e 45 52
e 45 53
e 45 54
e 46 47
e 46 48
e 46 49
e 46 50
e 46 51
e 46 52
e 46 53
e 46 54
e 47 48
e 47 49
e 47 50
e 47 51
e 47 52
e 47 54
e 48 49
e 48 50
e 48 51
e 48 52
e 48 53
e 48 54
e 48 89
e 49 50
e 49 51
e 49 52
e 49 54
e 50 51
e 50 52
e 50 53
e 50 54
e 51 52
e 51 53
e 51 54
e 52 53
e 52 54
e 52 57
e 53 54
e 55 100
e 55 101
e 55 102
e 55 103
e 55 104
e 55 105
e 55 106
e 55 107
e 55 108
e 55 109
e 55 110
e 55 57
e 55 111
e 55 56
e 56 100
e 56 101
e 56 102
e 56 103
e 56 104
e 56 105
e 56 106
e 56 107
e 56 108
e 56 109
e 56 110
e 56 57
e 57 100
e 57 102
e 57 103
e 57 104
e 57 105
e 57 106
e 57 107
e 57 108
e 57 109
e 57 110
e 57 111
e 58 59
e 58 60
e 58 61
e 58 62
e 58 63
e 58 64
e 58 65
e 58 66
e 58 68
e 58 69
e 59 60
e 59 61
e 59 62
e 59 63
e 59 64
e 59 65
e 59 66
e 59 67
e 59 68
e 59 69
e 59 70
e 60 61
e 60 62
e 60 63
e 60 64
e 60 65
e 60 66
e 60 67
e 60 68
e 60 69
e 61 62
e 61 63
e 61 64
e 61 65
e 61 67
e 61 68
e 61 69
e 62 63
e 62 64
e 62 65
e 62 66
e 62 67
e 62 68
e 62 69
e 63 64
e 63 65
e 63 66
e 63 67
e 63 68
e 63 69
e 64 65
e 64 66
e 64 67
e 64 68
e 64 69
e 64 71
e 64 72
e 65 66
e 65 67
e 65 68
e 65 69
e 66 67
e 66 68
e 66 69
e 67 68
e 67 69
e 68 69
e 70 112
e 70 113
e 70 114
e 70 115
e 70 116
e 70 72
e 70 117
e 70 118
e 70 119
e 70 120
e 70 121
e 70 122
e 70 71
e 70 123
e 71 112
e 71 113
e 71 114
e 71 115
e 71 116
e 71 72
e 71 117
e 71 118
e 71 119
e 71 120
e 71 121
e 71 122
e 71 123
e 71 91
e 72 112
e 72 113
e 72 114
e 72 115
e 72 116
e 72 117
e 72 118
e 72 119
e 72 120
e 72 121
e 72 122
e 72 123
e 73 74
e 73 75
e 73 76
e 73 77
e 73 78
e 73 79
e 73 80
e 73 81
e 73 82
e 73 83
e 73 84
e 74 75
e 74 76
e 74 77
e 74 78
e 74 79
e 74 80
e 74 81
e 74 82
e 74 83
e 74 84
e 75 76
e 75 77
e 75 78
e 75 79
e 75 80
e 75 81
e 75 82
e 75 83
e 75 84
e 76 77
e 76 78
e 76 79
e 76 80
e 76 81
e 76 82
e 76 83
e 76 84
e 77 78
e 77 79
e 77 80
e 77 81
e 77 82
e 77 83
e 77 84
e 78 79
e 78 80
e 78 81
e 78 82
e 78 83
e 78 84
e 79 80
e 79 81
e 79 82
e 79 83
e 79 84
e 80 81
e 80 82
e 80 83
e 80 84
e 81 82
e 81 83
e 81 84
e 82 83
e 82 84
e 82 86
e 83 84
e 84 87
e 85 124
e 85 125
e 85 126
e 85 127
e 85 128
e 85 129
e 85 87
e 85 130
e 85 86
e 85 132
e 85 133
e 85 134
e 85 135
e 86 124
e 86 125
e 86 126
e 86 127
e 86 128
e 86 129
e 86 87
e 86 130
e 86 131
e 86 132
e 86 133
e 86 134
e 86 135
e 87 124
e 87 125
e 87 126
e 87 127
e 87 128
e 87 129
e 87 130
e 87 131
e 87 132
e 87 133
e 87 134
e 87 135
e 88 89
e 88 90
e 88 91
e 88 92
e 88 93
e 88 94
e 88 95
e 88 96
e 88 97
e 88 98
e 88 99
e 89 90
e 89 91
e 89 92
e 89 93
e 89 94
e 89 95
e 89 97
e 89 98
e 89 99
e 90 91
e 90 92
e 90 93
e 90 94
e 90 95
e 90 96
e 90 97
e 90 98
e 90 99
e 91 92
e 91 93
e 91 94
e 91 95
e 91 96
e 91 97
e 91 98
e 91 99
e 92 93
e 92 94
e 92 95
e 92 96
e 92 97
e 92 98
e 92 99
e 93 94
e 93 95
e 93 96
e 93 97
e 93 98
e 93 99
e 94 95
e 94 96
e 94 97
e 94 98
e 94 99
e 95 96
e 95 97
e 95 98
e 95 99
e 96 97
e 96 98
e 96 99
e 97 98
e 97 99
e 98 99
e 100 101
e 100 102
e 100 103
e 100 104
e 100 105
e 100 106
e 100 108
e 100 109
e 100 110
e 100 111
e 101 102
e 101 103
e 101 104
e 101 105
e 101 106
e 101 107
e 101 108
e 101 109
e 101 111
e 102 103
e 102 104
e 102 105
e 102 106
e 102 107
e 102 108
e 102 109
e 102 110
e 102 111
e 103 104
e 103 105
e 103 106
e 103 107
e 103 108
e 103 109
e 103 110
e 103 111
e 104 105
e 104 106
e 104 107
e 104 108
e 104 109
e 104 110
e 104 111
e 105 106
e 105 107
e 105 108
e 105 109
e 105 110
e 105 111
e 106 107
e 106 108
e 106 109
e 106 110
e 106 111
e 107 108
e 107 109
e 107 110
e 107 111
e 108 109
e 108 110
e 108 111
e 109 110
e 109 111
e 110 111
e 112 113
e 112 114
e 112 115
e 112 116
e 112 117
e 112 118
e 112 119
e 112 120
e 112 121
e 112 122
e 112 123
e 113 114
e 113 115
e 113 116
e 113 117
e 113 118
e 113 119
e 113 121
e 113 122
e 113 123
e 114 115
e 114 116
e 114 117
e 114 118
e 114 119
e 114 120
e 114 121
e 114 122
e 114 123
e 115 116
e 115 117
e 115 118
e 115 119
e 115 120
e 115 121
e 115 122
e 115 123
e 116 117
e 116 118
e 116 119
e 116 120
e 116 121
e 116 122
e 116 123
e 117 118
e 117 119
e 117 120
e 117 121
e 117 122
e 117 123
e 118 119
e 118 120
e 118 121
e 118 122
e 118 123
e 119 120
e 119 121
e 119 122
e 119 123
e 120 121
e 120 122
e 120 123
e 121 122
e 121 123
e 122 123
e 124 125
e 124 126
e 124 127
e 124 128
e 124 129
e 124 130
e 124 131
e 124 132
e 124 133
e 124 134
e 124 135
e 125 126
e 125 127
e 125 128
e 125 129
e 125 130
e 125 131
e 125 132
e 125 133
e 125 134
e 125 135
e 126 127
e 126 128
e 126 129
e 126 130
e 126 131
e 126 132
e 126 133
e 126 134
e 126 135
e 127 128
e 127 129
e 127 130
e 127 131
e 127 132
e 127 133
e 127 134
e 127 135
e 128 129
e 128 130
e 128 131
e 128 132
e 128 133
e 128 134
e 128 135
e 129 130
e 129 132
e 129 133
e 129 134
e 129 135
e 130 131
e 130 132
e 130 133
e 130 134
e 131 132
e 131 133
e 131 134
e 131 135
e 132 133
e 132 134
e 132 135
e 133 134
e 133 135
e 134 135
l 12
t 96 131
